# Objective value = 2099.68
I_0_0 1214
I_0_1 1471
I_0_2 1.4149999999999998e+03
I_0_3 1873
I_1_0 18
I_1_1 -3.7969627442180354e-14
I_1_2 18
I_1_3 0
I_2_0 21
I_2_1 0
I_2_2 21
I_2_3 0
I_3_0 22
I_3_1 0
I_3_2 22
I_3_3 0
I_4_0 52
I_4_1 5.2000000000000036e+01
I_4_2 2.5999999999999964e+01
I_4_3 -3.3750779948604759e-14
I_5_0 64
I_5_1 64
I_5_2 3.1999999999999972e+01
I_5_3 -2.8421709430404007e-14
I_6_0 78
I_6_1 39
I_6_2 78
I_6_3 39
I_7_0 160
I_7_1 160
I_7_2 80
I_7_3 0
I_8_0 116
I_8_1 5.7999999999999915e+01
I_8_2 1.1600000000000009e+02
I_8_3 5.8000000000000085e+01
I_9_0 126
I_9_1 1.2599999999999997e+02
I_9_2 6.2999999999999943e+01
I_9_3 -5.3290705182007514e-14
I_10_0 99
I_10_1 0
I_10_2 99
I_10_3 0
q_1_0 -3.7969627442180354e-14
q_1_1 3.6000000000000043e+01
q_1_2 0
q_2_0 0
q_2_1 42
q_2_2 0
q_3_0 0
q_3_1 44
q_3_2 0
q_4_0 2.6000000000000036e+01
q_4_1 -7.4606987254810520e-14
q_4_2 0
q_5_0 32
q_5_1 -3.9079850466805510e-14
q_5_2 0
q_6_0 0
q_6_1 78
q_6_2 0
q_7_0 80
q_7_1 0
q_7_2 0
q_8_0 -8.6930462828149757e-14
q_8_1 1.1600000000000017e+02
q_8_2 0
q_9_0 6.2999999999999972e+01
q_9_1 -6.3948846218409017e-14
q_9_2 0
q_10_0 0
q_10_1 198
q_10_2 0
y_0_0 1
y_0_1 1
y_0_2 -3.4694469519536142e-17
y_1_0 -2.1094237467877974e-15
y_1_1 1
y_1_2 0
y_2_0 0
y_2_1 1
y_2_2 0
y_3_0 0
y_3_1 1
y_3_2 0
y_4_0 1.0000000000000013e+00
y_4_1 -1.27675647831893e-15
y_4_2 0
y_5_0 1
y_5_1 -6.1062266354383610e-16
y_5_2 0
y_6_0 0
y_6_1 1
y_6_2 0
y_7_0 1
y_7_1 0
y_7_2 0
y_8_0 -1.4988010832439613e-15
y_8_1 1.0000000000000013e+00
y_8_2 0
y_9_0 9.9999999999999956e-01
y_9_1 -4.9960036108132044e-16
y_9_2 -3.4694469519536142e-17
y_10_0 0
y_10_1 1
y_10_2 0
x_0_1_0 0
x_0_1_1 1.0000000000000004e+00
x_0_1_2 0
x_0_2_0 0
x_0_2_1 1.0000000000000013e+00
x_0_2_2 0
x_0_3_0 0
x_0_3_1 0
x_0_3_2 0
x_0_4_0 1.0000000000000024e+00
x_0_4_1 0
x_0_4_2 0
x_0_5_0 0
x_0_5_1 0
x_0_5_2 0
x_0_6_0 0
x_0_6_1 -4.4408920985006262e-16
x_0_6_2 0
x_0_7_0 -9.9920072216264089e-16
x_0_7_1 0
x_0_7_2 0
x_0_8_0 0
x_0_8_1 0
x_0_8_2 0
x_0_9_0 9.9999999999999822e-01
x_0_9_1 -1.1102230246251565e-15
x_0_9_2 -6.9388939039072284e-17
x_0_10_0 0
x_0_10_1 0
x_0_10_2 0
x_1_2_0 0
x_1_2_1 -2.7755575615628914e-16
x_1_2_2 0
x_1_3_0 0
x_1_3_1 0
x_1_3_2 0
x_1_4_0 -2.1094237467877974e-15
x_1_4_1 -7.4940054162198066e-16
x_1_4_2 0
x_1_5_0 0
x_1_5_1 0
x_1_5_2 0
x_1_6_0 0
x_1_6_1 0
x_1_6_2 0
x_1_7_0 0
x_1_7_1 0
x_1_7_2 0
x_1_8_0 -2.1094237467877974e-15
x_1_8_1 1.0000000000000020e+00
x_1_8_2 0
x_1_9_0 0
x_1_9_1 0
x_1_9_2 0
x_1_10_0 0
x_1_10_1 -1.3322676295501878e-15
x_1_10_2 0
x_2_3_0 0
x_2_3_1 -4.4408920985006262e-16
x_2_3_2 0
x_2_4_0 0
x_2_4_1 0
x_2_4_2 0
x_2_5_0 0
x_2_5_1 0
x_2_5_2 0
x_2_6_0 0
x_2_6_1 1
x_2_6_2 0
x_2_7_0 0
x_2_7_1 0
x_2_7_2 0
x_2_8_0 0
x_2_8_1 0
x_2_8_2 0
x_2_9_0 0
x_2_9_1 2.7755575615628914e-16
x_2_9_2 0
x_2_10_0 0
x_2_10_1 0
x_2_10_2 0
x_3_4_0 0
x_3_4_1 0
x_3_4_2 0
x_3_5_0 0
x_3_5_1 0
x_3_5_2 0
x_3_6_0 0
x_3_6_1 1.0000000000000007e+00
x_3_6_2 0
x_3_7_0 0
x_3_7_1 0
x_3_7_2 0
x_3_8_0 0
x_3_8_1 0
x_3_8_2 0
x_3_9_0 0
x_3_9_1 0
x_3_9_2 0
x_3_10_0 0
x_3_10_1 1
x_3_10_2 0
x_4_5_0 1.0000000000000016e+00
x_4_5_1 -1.3322676295501878e-15
x_4_5_2 -5.5511151231257827e-17
x_4_6_0 0
x_4_6_1 0
x_4_6_2 0
x_4_7_0 0
x_4_7_1 0
x_4_7_2 5.5511151231257827e-17
x_4_8_0 0
x_4_8_1 -1.6653345369377348e-16
x_4_8_2 0
x_4_9_0 0
x_4_9_1 0
x_4_9_2 0
x_4_10_0 0
x_4_10_1 0
x_4_10_2 0
x_5_6_0 0
x_5_6_1 0
x_5_6_2 0
x_5_7_0 1
x_5_7_1 0
x_5_7_2 0
x_5_8_0 -1.4432899320127035e-15
x_5_8_1 0
x_5_8_2 0
x_5_9_0 0
x_5_9_1 0
x_5_9_2 0
x_5_10_0 0
x_5_10_1 0
x_5_10_2 0
x_6_7_0 0
x_6_7_1 0
x_6_7_2 0
x_6_8_0 0
x_6_8_1 0
x_6_8_2 0
x_6_9_0 0
x_6_9_1 0
x_6_9_2 0
x_6_10_0 0
x_6_10_1 0
x_6_10_2 0
x_7_8_0 0
x_7_8_1 0
x_7_8_2 0
x_7_9_0 1.0000000000000009e+00
x_7_9_1 0
x_7_9_2 0
x_7_10_0 0
x_7_10_1 0
x_7_10_2 0
x_8_9_0 0
x_8_9_1 0
x_8_9_2 0
x_8_10_0 0
x_8_10_1 1.0000000000000013e+00
x_8_10_2 0
x_9_10_0 0
x_9_10_1 0
x_9_10_2 0
